%chk=p-benzoquinone-zindo.chk 
# zindo(NState=10) 

titre 

0 1 
 O  -0.0063    0.8427    1.2033 
 C   1.0814    0.7849    1.7637 
 C   1.1975    0.3718    3.1869 
 C   2.3392    1.1246    1.0482 
 C   2.3902    0.3085    3.8012 
 C   3.5319    1.0613    1.6625 
 C   3.6481    0.6482    3.0857 
 O   4.7358    0.5905    3.6461 
 H   0.2644    0.1286    3.6874 
 H   2.2278    1.4234    0.0096 
 H   2.5017    0.0098    4.8399 
 H   4.4651    1.3046    1.1620 


