%chk=dedoubl-s-opt
#n PM6 Opt

Optimisation de geometrie

0 1
O         -1.88176       -5.10266       -3.57628
O         -0.43545       -8.51423       -3.89381
C         -0.64069       -5.00452       -4.14932
C         -0.44182       -4.11439       -5.19990
C          0.81864       -3.99494       -5.78164
C          1.89690       -4.76665       -5.32919
C          3.16332       -4.62952       -5.92540
C          4.25157       -5.38324       -5.48767
C          4.08770       -6.28523       -4.44656
C          2.83647       -6.42892       -3.84370
C          1.70878       -5.68001       -4.26120
C          0.41641       -5.79321       -3.65416
C          0.21653       -6.67453       -2.47430
C         -0.13834       -8.02576       -2.64587
C         -0.20596       -8.89760       -1.56362
C          0.04961       -8.43082       -0.27922
C          0.37040       -7.08905       -0.05439
C          0.60529       -6.64109        1.25562
C          0.91538       -5.30790        1.51348
C          0.99104       -4.40535        0.46197
C          0.76526       -4.83988       -0.84700
C          0.45181       -6.18807       -1.14721
H         -1.25785       -3.49905       -5.56941
H          0.94758       -3.28439       -6.59455
H          3.30986       -3.92533       -6.74109
H          5.22256       -5.26518       -5.95898
H          4.92518       -6.88113       -4.09554
H          2.74429       -7.14667       -3.03035
H         -0.50387       -9.93750       -1.68488
H          0.53639       -7.33665        2.08926
H          1.08379       -4.97674        2.53350
H          1.21276       -3.35924        0.65139
H          0.81415       -4.10022       -1.64400
H         -2.48735       -4.40473       -3.93628
H         -0.83239       -9.39341       -3.75684
Cl        -4.21323       -3.04186       -4.64647
O         -3.89416       -6.98254       -3.05818
N         -6.46767       -7.52664       -4.56807
N         -3.38221      -11.20730       -0.27252
C         -7.82998       -8.13351       -4.87862
C         -8.55445       -8.47186       -3.57696
C         -7.87009       -7.79256       -2.38806
C         -6.48972       -8.42771       -2.20390
C         -5.72976       -8.51478       -3.54722
C         -7.68469       -6.28972       -2.70553
C         -6.68341       -6.14267       -3.88212
C         -7.39926       -5.50481       -1.44136
C         -6.39842       -4.64850       -1.20878
C         -5.62172       -7.33539       -5.84331
C         -6.31454       -6.69894       -7.03282
C         -7.04900       -7.46116       -7.95601
C         -7.71140       -6.84494       -9.02267
C         -7.63543       -5.46386       -9.19140
C         -6.89043       -4.69959       -8.30020
C         -6.23488       -5.31473       -7.23373
C         -4.17991       -8.32712       -3.41757
C         -3.61647       -9.30149       -2.42216
C         -3.52017      -10.75283       -2.70469
C         -3.55201      -11.29639       -3.99978
C         -3.48929      -12.67774       -4.19271
C         -3.38251      -13.52425       -3.09674
C         -3.34084      -12.98977       -1.80939
C         -3.41161      -11.60606       -1.57349
C         -3.40691       -9.89054        0.00987
C         -3.46757       -8.90706       -1.03916
H         -8.40837       -7.39995       -5.45021
H         -7.67767       -9.03340       -5.48475
H         -9.60297       -8.16004       -3.64938
H         -8.56944       -9.55958       -3.43099
H         -8.47210       -7.93884       -1.48342
H         -6.59723       -9.43897       -1.79120
H         -5.92911       -7.85161       -1.46128
H         -8.65405       -5.90762       -3.05831
H         -5.70795       -5.75879       -3.60315
H         -7.11667       -5.47195       -4.63033
H         -8.10762       -5.66126       -0.62719
H         -5.62858       -4.40206       -1.93636
H         -6.30514       -4.15162       -0.24679
H         -7.11310       -8.54194       -7.85727
H         -8.28363       -7.44137       -9.72851
H         -8.14497       -4.98103      -10.02085
H         -6.80751       -3.62178       -8.42566
H         -5.65150       -4.69123       -6.55853
H         -3.70266       -8.48988       -4.38872
H         -3.61430      -10.66248       -4.87539
H         -3.51631      -13.09432       -5.19385
H         -3.32613      -14.59971       -3.22761
H         -3.25246      -13.66098       -0.95594
H         -3.39033       -9.50508        1.02493
H         -3.44656       -7.85922       -0.76169
H         -2.92052       -6.85647       -3.03361
H         -5.90600       -9.50886       -3.98059
H         -4.73517       -6.75143       -5.57245
H         -5.28083       -8.33589       -6.13876
H         -0.05253       -9.13134        0.54757





