# hf/6-31G* opt

Optimisation de geometrie

0 1
