#n PM3 Opt

Optimisation de geometrie

0 1
