#n PM6 Opt

Optimisation de geometrie

0 1
