#n AM1 Opt

Optimisation de geometrie

0 1
