# hf/6-31G* opt freq 

Optimisation de geometrie

0 1
