#n AM1 Opt freq

Optimisation de geometrie

0 1
