%chk=trans
#n AM1 Opt

Geometry optimization

0 1
C          6.18863        1.65550       -0.41953
C          6.69671        0.34848       -0.36059
C          4.79021        1.77616       -0.43484
N          7.07541        2.68158       -0.45640
C          5.86472       -0.77771       -0.31909
C          3.94451        0.65986       -0.39386
C          4.48254       -0.62183       -0.33578
N          6.48450        4.03180       -0.51773
C          7.36576        5.06202       -0.55483
C          9.06405        7.34474       -0.63888
C          7.68128        7.49598       -0.65530
C          9.60647        6.06491       -0.58092
C          6.85296        6.36706       -0.61364
C          8.76451        4.94590       -0.53978
H          7.77672        0.22673       -0.34756
H          4.36304        2.77527       -0.48018
H          6.31153       -1.76246       -0.27422
H          2.87341        0.81559       -0.40827
H          3.83246       -1.48601       -0.30402
H          9.71124        8.21109       -0.67077
H          7.23128        8.47930       -0.70007
H         10.67807        5.91271       -0.56672
H          5.77255        6.48507       -0.62646
H          9.19464        3.94805       -0.49454




