%chk=ethane-opt
# hf/6-31G* opt freq 

Optimisation de geometrie

0 1
H          0.53970        1.76660       -0.00250
C          0.71660        0.89800        0.64250
H          0.48990        0.00050        0.05510
H         -0.00780        0.94520        1.46400
C          2.15410        0.87450        1.16590
H          2.33130        0.00530        1.81000
H          2.87850        0.82840        0.34440
H          2.38050        1.77150        1.75420





