%chk=anthracene-2-6-opt
#n AM1 Opt

Geometry optimization

0 1
C          0.00694        1.44703        0.00028
C          1.27658        0.69295        0.00015
C         -1.27037        0.70520        0.00010
O          0.01047        2.67209        0.00052
C         -0.00828       -1.44242       -0.00035
C         -1.27787       -0.68987       -0.00019
O         -0.01574       -2.66803       -0.00064
C          1.26887       -0.70168       -0.00016
C          2.49361        1.38410        0.00036
C         -2.49258       -1.38938       -0.00034
C          2.47914       -1.40940       -0.00028
C         -2.48139        1.40910        0.00025
C          3.68858        0.67168        0.00024
C          3.69348       -0.71990       -0.00008
C         -3.69115        0.71298        0.00010
C         -3.68762       -0.67784       -0.00019
H          2.51433        2.47197        0.00060
H         -2.49081       -2.47631       -0.00057
H          2.47881       -2.49829       -0.00052
H         -2.48783        2.49774        0.00048
H          4.62341       -1.28116       -0.00017
H         -4.63377        1.25490        0.00021
N          4.85008        1.38377        0.00045
N         -4.89255       -1.31388       -0.00032
H          5.71537        0.91418        0.00037
H          4.82411        2.36793        0.00068
H         -4.92986       -2.29767       -0.00053
H         -5.72588       -0.78967       -0.00021




