%chk=cyclobutane-ion-relaxed
# hf/6-31G* Opt 

Optimisation de geometrie

1 2
 C         1.825947484631      2.929071025890      0.929586703212
 C         0.758771045300      1.796552360706      0.977368029033
 C         1.717819108352      0.570445599095      0.952494889043
 C         2.784995820107      1.702964751318      0.904716281683
 H         1.888135816806      3.571312090972      1.836701783472
 H         1.821961550636      3.556603884270      0.010138204654
 H         0.150020298061      1.815318146073      0.035866664501
 H         0.219733197858      1.830810687454      1.960027716501
 H         1.655630854222     -0.071793950220      0.045378684186
 H         1.721805003024     -0.057088448277      1.871942435278
 H         3.324036695789      1.668705509596     -0.077941453875
 H         3.393743125212      1.684198343121      1.846220062312





