%chk=anthracene-2-6-opt-zindo
#n ZINDO(NSTATE=10) pop=full gfinput

UV-spectra

0 1
 C         0.005643881293      1.468333322160      0.000370480149
 C         1.267726694032      0.691391806954      0.000202645841
 C        -1.254438207008      0.702464852868      0.000156683426
 O         0.013100577960      2.707575865994      0.000552727227
 C        -0.000749584192     -1.479272531009     -0.000270837899
 C        -1.261210523228     -0.701172819703     -0.000146519586
 O        -0.010970716918     -2.719204262060     -0.000614391271
 C         1.259663284211     -0.715159386733     -0.000102839437
 C         2.476762843089      1.385869265078      0.000358490809
 C        -2.473650868044     -1.394296614150     -0.000336634546
 C         2.472708599130     -1.414672945136     -0.000250979582
 C        -2.470785534861      1.401479168453      0.000265122725
 C         3.685746032482      0.666049382566      0.000208481034
 C         3.687489399568     -0.735217660549     -0.000096920755
 C        -3.684926404057      0.725660275709      0.000079818273
 C        -3.680650433270     -0.679248813848     -0.000222054297
 H         2.489290167112      2.488088413281      0.000598221526
 H        -2.469078811134     -2.496239268495     -0.000574669270
 H         2.453792088783     -2.518080281704     -0.000492113086
 H        -2.451189526426      2.505121611192      0.000503580590
 H         4.635579703945     -1.291854951763     -0.000214090227
 H        -4.641176965271      1.268468415570      0.000164566359
 O         4.837042460431      1.413293858011      0.000376374525
 H         5.591898823513      0.805509027589      0.000252927494
 O        -4.905742372515     -1.298281567071     -0.000396905789
 H        -4.760914608625     -2.256804163204     -0.000591164231





