%chk=anthracene-1-8-opt-zindo
#n ZINDO(NSTATE=10) pop=full gfinput

UV-spectra

0 1
 C        -0.005642093162      1.469268483852      0.001021189589
 C         1.262842908947      0.725819458648      0.000521792183
 C        -1.273459019612      0.724719287772      0.000473330168
 O        -0.006237932782      2.719806403687      0.000561632072
 C        -0.004387338438     -1.451235981110      0.000349915800
 C        -1.270827721759     -0.688271270532      0.000170539115
 O        -0.003855541410     -2.691215148143     -0.000474178991
 C         1.261400608001     -0.687183122861      0.000218263968
 C         2.510243024626      1.383041837354      0.000351756277
 C        -2.461288077958     -1.408319373617     -0.000305211103
 C         2.452457202482     -1.406241005746     -0.000213034316
 C        -2.521381333152      1.380906365639      0.000255328901
 C         3.720703471570      0.642532048006     -0.000083793540
 C         3.683761417652     -0.736843737284     -0.000357427814
 C        -3.731236179624      0.639408816263     -0.000225348474
 C        -3.693149031356     -0.739939227842     -0.000496429757
 H         2.419992314239     -2.508613461866     -0.000439087181
 H         4.671870307109      1.196343963257     -0.000197121028
 H         4.619738154924     -1.317119024703     -0.000701976232
 H        -4.628644799565     -1.320989798318     -0.000875684695
 H        -4.682858843505      1.192437972886     -0.000375081144
 O         2.712076938499      2.732041367058      0.000583805978
 H         1.870494014413      3.215641130886      0.000878893328
 H        -2.427909416233     -2.510664853804     -0.000529337175
 O        -2.724239170934      2.729747468220      0.000477364136
 H        -1.882983862972      3.213921402297      0.000809899934





