%chk=1-3-propanediol-open-opt
# hf/6-31G* opt

Optimisation de geometrie

0 1
C          1.35234        2.26710        1.22173
O          0.00813        2.03948        0.81160
C          2.07311        0.92948        1.30359
C          3.47119        1.06237        1.88454
O          4.25953        1.92090        1.07292
H          1.33280        2.76292        2.19737
H          1.82988        2.93046        0.49372
H         -0.40740        2.91344        0.71400
H          2.12648        0.50186        0.29456
H          1.48589        0.22668        1.90634
H          3.95461        0.08103        1.92404
H          3.43572        1.47544        2.89774
H          5.16500        1.89747        1.42856





