%chk=anthracene-1-5-opt
#n AM1 Opt

Geometry optimization

0 1
C          0.00105        1.44895        0.00029
C          1.27733        0.70913        0.00017
C         -1.27460        0.70736        0.00011
O          0.01417        2.67667        0.00054
C         -0.00384       -1.42708       -0.00034
C         -1.28013       -0.68727       -0.00019
O         -0.01696       -2.65481       -0.00063
C          1.27180       -0.68550       -0.00015
C          2.50212        1.39000        0.00036
C         -2.50491       -1.36814       -0.00034
C          2.48056       -1.39577       -0.00027
C         -2.48335        1.41764        0.00026
C          3.70448        0.68588        0.00024
C          3.69477       -0.70822       -0.00007
C         -3.69756        0.73008        0.00011
C         -3.70727       -0.66401       -0.00019
H          2.48196       -2.48474       -0.00051
H         -2.48475        2.50661        0.00049
H          4.64835        1.22628        0.00040
H          4.63343       -1.25798       -0.00016
H         -4.65114       -1.20441       -0.00031
H         -4.63622        1.27985        0.00022
N          2.59917        2.75547        0.00067
N         -2.60196       -2.73361       -0.00063
H         -1.78640       -3.28507       -0.00075
H         -3.48731       -3.16418       -0.00072
H          1.78361        3.30693        0.00077
H          3.48452        3.18604        0.00079




