%chk=cyclobutane-ion
#n AM1 freq

Optimisation de geometrie

1 2
 C         1.821849258821      2.839722572599      0.930419894504
 C         0.682586682681      1.800072766391      0.980135493590
 C         1.721915757012      0.659791828399      0.951594468644
 C         2.861186445293      1.699443733270      0.902015834318
 H         1.884001651245      3.486706440506      1.830144518574
 H         1.818366107329      3.472313143746      0.018325345912
 H         0.010462670088      1.822303845592      0.097122537988
 H         0.075906885867      1.836902588298      1.908943041586
 H         1.659762631425      0.012623175272      0.051923683525
 H         1.725413974631      0.027400015642      1.863745254893
 H         3.467661173313      1.662617884871     -0.026844202379
 H         3.533486762294      1.677202005413      1.784974128846




