%chk=cyclohexane-opt
# hf/6-31G* opt freq 

Optimisation de geometrie

0 1
C          1.79670        3.49760        1.19550
C          1.03530        2.25860        1.69350
C          1.70000        0.95860        1.21320
C          3.18440        0.90570        1.60900
C          3.94580        2.14470        1.11100
C          3.28110        3.44470        1.59130
H          1.33160        4.41190        1.58630
H          1.71800        3.55180        0.09920
H         -0.01040        2.29620        1.36150
H          1.01350        2.26690        2.79370
H          1.61670        0.89500        0.11770
H          1.16780        0.08750        1.61680
H          3.64950       -0.00860        1.21810
H          3.26310        0.85140        2.70520
H          3.96770        2.13640        0.01090
H          4.99140        2.10710        1.44310
H          3.81330        4.31570        1.18760
H          3.36430        3.50830        2.68680





