%chk=cis
#n AM1 Opt

Geometry optimization

0 1
N          0.25738        2.35135        3.10030
C          0.87812        3.57151        3.69770
C          1.61241        4.52476        3.00760
C          2.06661        5.66866        3.66680
C          1.78652        5.84660        5.01610
C          1.05223        4.89335        5.70620
C          0.59803        3.76216        5.04700
N         -0.25738        2.35135        2.04970
C         -0.87812        3.57151        1.45230
C         -1.61241        4.52476        2.14240
C         -0.59803        3.76216        0.10300
C         -2.06661        5.66866        1.48320
C         -1.05223        4.89335       -0.55620
C         -1.78652        5.84660        0.13390
H          0.28249        1.51103        3.61262
H          1.82306        4.38840        2.00657
H          2.60918        6.38047        3.15303
H          2.12541        6.68949        5.50570
H          0.84463        5.02625        6.70833
H          0.04802        3.05606        5.56075
H         -0.28249        1.51103        1.53738
H         -1.82306        4.38840        3.14343
H         -0.04802        3.05606       -0.41075
H         -2.60918        6.38047        1.99697
H         -0.84463        5.02625       -1.55833
H         -2.12541        6.68949       -0.35570




