%chk=1-2-ethanediol-open-opt
#n PM3 Opt

Optimisation de geometrie

0 1
C          2.26235        2.30287        2.12682
O          1.19477        2.75300        2.94869
C          1.86043        1.06071        1.33944
O          2.93052        0.60593        0.52348
H          3.12289        2.08284        2.76710
H          2.56524        3.11234        1.45399
H          0.48594        3.06486        2.35936
H          1.00384        1.28284        0.69460
H          1.55145        0.25316        2.01180
H          3.63326        0.28804        1.11694





