#n AM1 freq=RAMAN

Raman spectra of CH3Cl

0 1
         6               -0.000000   -0.000000   -1.098070
         1                0.000000    1.055442   -1.446492
         1               -0.914040   -0.527721   -1.446492
         1                0.914040   -0.527721   -1.446492
        17                0.000000    0.000000    0.642817




