#n AM1 Opt=modredundant

Optimisation de geometrie

0 1
