#n PM3 Opt=modredundant

Optimisation de geometrie

0 1
