#n PM6 Opt=modredundant

Optimisation de geometrie

0 1
