# hf/6-31G* Opt=modredundant

Optimisation de geometrie

0 1
