%chk=anthracene-1-4-opt-zindo
#n ZINDO(NSTATE=10) pop=full gfinput

UV-spectra

0 1
 C         0.027375378721      1.494659350291      0.356708840715
 C         1.271157331884      0.720957641422      0.147030533650
 C        -1.235066398032      0.746147387442      0.165416144092
 O         0.051726923192      2.690514521583      0.666998834467
 C         0.001186365989     -1.410538616082      0.485621556523
 C        -1.247732401320     -0.659312482809      0.227627918881
 O         0.004109371361     -2.574571791074      0.900315388315
 C         1.258580540298     -0.680929651400      0.209624872095
 C         2.471077697774      1.394854867309     -0.101392227813
 C        -2.462166645733     -1.345520616280      0.042265215638
 C         2.446119862093     -1.395636876410      0.023579585652
 C        -2.437181217529      1.435011645718     -0.080566008582
 C         3.649876225149      0.674938211739     -0.299382718474
 C         3.637447777761     -0.717450170077     -0.236902704018
 C        -3.647139673885      0.737468934984     -0.256316349080
 C        -3.659560468999     -0.644605455746     -0.195296351200
 H         2.472255075999      2.496685296165     -0.132937079607
 H         2.427587105570     -2.495723876450      0.090620849145
 H         4.589921363421      1.210550123881     -0.500514578601
 H         4.567687803777     -1.285571361487     -0.388256909392
 H        -4.600296489507     -1.198868407670     -0.331234221726
 H        -4.577903687306      1.294384879606     -0.441247221946
 O        -2.374325860838      2.804058470296     -0.161063583889
 H        -3.275982028810      3.138373453767     -0.283379168120
 O        -2.423888202562     -2.717254079269      0.082547948438
 H        -3.331625748468     -3.044821399448     -0.009178565165





