%chk=anthracene-2-3-opt
#n AM1 Opt

Geometry optimization

0 1
C          0.01771        1.45101       -0.01652
C          1.29133        0.70404       -0.00695
C         -1.25582        0.70392       -0.00756
O          0.01380        2.67628       -0.03072
C          0.01862       -1.43770        0.01468
C         -1.25536       -0.69133        0.01380
O          0.01546       -2.66302        0.02448
C          1.29176       -0.68995        0.00394
C          2.50495        1.40355       -0.01000
C         -2.46651       -1.39612        0.03367
C          2.50582       -1.38872        0.00708
C         -2.46748        1.40804       -0.01817
C          3.71355        0.70508       -0.00474
C          3.71399       -0.68951        0.00246
C         -3.66890        0.70378       -0.00216
C         -3.66839       -0.69250        0.02807
H          2.51333        2.49229       -0.01630
H         -2.45875       -2.48300        0.05223
H          2.51486       -2.47745        0.01356
H         -2.46047        2.49493       -0.03690
H          4.65530        1.24982       -0.00675
H          4.65606       -1.23366        0.00519
O         -4.86019        1.37178       -0.01423
H         -4.69816        2.32736       -0.05970
O         -4.85916       -1.36113        0.05143
H         -4.69620       -2.31639        0.10026




