%chk=anthracene-1-8-opt
#n AM1 Opt

Geometry optimization

0 1
C         -0.00559        1.43267        0.00028
C          1.27255        0.69724        0.00016
C         -1.28311        0.69617        0.00011
O         -0.00611        2.66303        0.00053
C         -0.00439       -1.44380       -0.00035
C         -1.27910       -0.69853       -0.00019
O         -0.00388       -2.66901       -0.00064
C          1.26970       -0.69746       -0.00015
C          2.49602        1.38062        0.00036
C         -2.48929       -1.40673       -0.00034
C          2.48048       -1.40465       -0.00027
C         -2.50716        1.37852        0.00025
C          3.69994        0.67890        0.00024
C          3.69330       -0.71501       -0.00007
C         -3.71049        0.67580        0.00010
C         -3.70269       -0.71810       -0.00020
H          2.48292       -2.49382       -0.00051
H          4.64299        1.22075        0.00040
H          4.63270       -1.26345       -0.00016
H         -4.64162       -1.26733       -0.00031
H         -4.65400        1.21686        0.00021
O          2.59270        2.74594        0.00067
H          1.68478        3.12197        0.00071
H         -2.49082       -2.49590       -0.00057
O         -2.60498        2.74377        0.00053
H         -1.69737        3.12055        0.00061




