%chk=anthracene-2-7-opt-zindo
#n ZINDO(NSTATE=10) pop=full gfinput

UV-spectra

0 1
 C         0.004301818759      1.468046165260      0.000341333233
 C         1.263678991224      0.689396279245      0.000187487430
 C        -1.262247728470      0.701117882581      0.000143323728
 O         0.010048253298      2.706366091079      0.000558581442
 C        -0.009379177360     -1.480131861911     -0.000307580097
 C        -1.264935479605     -0.705055250954     -0.000166025039
 O        -0.015136442578     -2.720816400027     -0.000633069417
 C         1.253316330071     -0.716741042523     -0.000123303792
 C         2.473872039089      1.382818966204      0.000358998331
 C        -2.483499218244     -1.394660713699     -0.000344603175
 C         2.465427665238     -1.417626120062     -0.000261306834
 C        -2.465953082673      1.405742077070      0.000271635810
 C         3.681548398803      0.661443176083      0.000218554536
 C         3.681183216344     -0.739781599692     -0.000092247321
 C        -3.680272545331      0.695605377634      0.000090074035
 C        -3.692911740647     -0.705562261015     -0.000218295464
 H         2.488111218741      2.484945016981      0.000602354000
 H        -2.472921874881     -2.498216795692     -0.000587714952
 H         2.444608649054     -2.521036495002     -0.000506633135
 H        -2.469963591183      2.507952840037      0.000513185509
 H         4.628471071352     -1.297813322027     -0.000201734194
 H        -4.645337572700     -1.254778743476     -0.000359198494
 O         4.834229398502      1.407128532912      0.000401433244
 H         5.587878311489      0.797916290631      0.000281804362
 O        -4.825983163037      1.451956635405      0.000232427542
 H        -5.585253743913      0.849765274955      0.000080509743





